(set-logic QF_S)
(declare-fun var0 () String)
(declare-fun var1 () String)
(declare-fun var2 () String)
(declare-fun var3 () String)
(declare-fun var4 () String)
(declare-fun var5 () String)
(declare-fun var6 () String)
(declare-fun var7 () String)
(declare-fun var8 () String)
(declare-fun var9 () String)
(declare-fun var10 () String)
(declare-fun var11 () String)
(declare-fun var12 () String)
(declare-fun var13 () String)
(declare-fun var14 () String)
(declare-fun var15 () String)
(declare-fun var16 () String)
(declare-fun var17 () String)
(declare-fun var18 () String)
(declare-fun var19 () String)
(declare-fun var20 () String)
(declare-fun var21 () String)
(declare-fun var22 () String)
(declare-fun var23 () String)
(declare-fun var24 () String)
(declare-fun var25 () String)
(declare-fun var26 () String)
(declare-fun var27 () String)
(declare-fun var28 () String)
(declare-fun var29 () String)
(declare-fun var30 () String)
(declare-fun var31 () String)
(declare-fun var32 () String)
(declare-fun var33 () String)
(declare-fun var34 () String)
(declare-fun var35 () String)
(declare-fun var36 () String)
(declare-fun var37 () String)
(declare-fun var38 () String)
(declare-fun var39 () String)
(declare-fun var40 () String)
(declare-fun var41 () String)
(declare-fun var42 () String)
(declare-fun var43 () String)
(declare-fun var44 () String)
(declare-fun var45 () String)
(declare-fun var46 () String)
(declare-fun var47 () String)
(declare-fun var48 () String)
(declare-fun var49 () String)
(declare-fun var50 () String)
(declare-fun var51 () String)
(declare-fun var52 () String)
(declare-fun var53 () String)
(declare-fun var54 () String)
(declare-fun var55 () String)
(declare-fun var56 () String)
(declare-fun var57 () String)
(declare-fun var58 () String)
(declare-fun var59 () String)
(declare-fun var60 () String)
(assert (= var0 (Concat var1 var2)))
(assert (= var2 (Concat var3 var4)))
(assert (= var4 (Concat var5 var6)))
(assert (= var6 (Concat var7 var8)))
(assert (= var8 (Concat var9 var10)))
(assert (= var10 (Concat var11 var12)))
(assert (= var12 (Concat var13 var14)))
(assert (= var14 (Concat var15 var16)))
(assert (= var16 (Concat var17 var18)))
(assert (= var18 (Concat var19 var20)))
(assert (= var20 (Concat var21 var22)))
(assert (= var22 (Concat var23 var24)))
(assert (= var24 (Concat var25 var26)))
(assert (= var26 (Concat var27 var28)))
(assert (= var28 (Concat var29 var30)))
(assert (= var30 (Concat var31 var32)))
(assert (= var32 (Concat var33 var34)))
(assert (= var34 (Concat var35 var36)))
(assert (= var36 (Concat var37 var38)))
(assert (= var38 (Concat var39 var40)))
(assert (= var40 (Concat var41 var42)))
(assert (= var42 (Concat var43 var44)))
(assert (= var44 (Concat var45 var46)))
(assert (= var46 (Concat var47 var48)))
(assert (= var48 (Concat var49 var50)))
(assert (= var50 (Concat var51 var52)))
(assert (= var52 (Concat var53 var54)))
(assert (= var54 (Concat var55 var56)))
(assert (= var56 (Concat var57 var58)))
(assert (= var58 (Concat var59 var60)))
(assert (= var0 "solution"))
(assert (= "t" (CharAt var54 888)))
(assert (= "*" (CharAt var8 198)))
(assert (= "&" (CharAt var24 998)))
(assert (= "D" (CharAt var11 934)))
(assert (= "W" (CharAt var27 836)))
(assert (= "I" (CharAt var6 807)))
(assert (= "M" (CharAt var42 266)))
(assert (= "%" (CharAt var53 311)))
(assert (= "m" (CharAt var49 698)))
(assert (= "p" (CharAt var37 458)))
(assert (= "!" (CharAt var51 226)))
(assert (= "H" (CharAt var53 96)))
(assert (= "K" (CharAt var58 818)))
(assert (= ")" (CharAt var17 77)))
(assert (= "r" (CharAt var24 648)))
(assert (= ">" (CharAt var15 878)))
(assert (= "t" (CharAt var48 955)))
(assert (= "R" (CharAt var17 322)))
(assert (= "." (CharAt var42 571)))
(assert (= "R" (CharAt var35 657)))
(assert (= "^" (CharAt var15 988)))
(assert (= "J" (CharAt var49 35)))
(assert (= "r" (CharAt var7 348)))
(assert (= "/" (CharAt var8 26)))
(assert (= "2" (CharAt var56 937)))
(assert (= "Z" (CharAt var31 664)))
(assert (= "S" (CharAt var45 655)))
(assert (= "p" (CharAt var40 891)))
(assert (= "|" (CharAt var44 499)))
(assert (= "O" (CharAt var13 43)))
(assert (= "\\" (CharAt var55 78)))
(assert (= "I" (CharAt var3 924)))
(assert (= "1" (CharAt var29 778)))
(assert (= "-" (CharAt var30 377)))
(assert (= "M" (CharAt var10 67)))
(assert (= ":" (CharAt var21 785)))
(assert (= "t" (CharAt var60 43)))
(assert (= "Z" (CharAt var55 593)))
(assert (= "$" (CharAt var59 6)))
(assert (= "^" (CharAt var10 425)))
(assert (= "g" (CharAt var45 577)))
(assert (= "<" (CharAt var16 102)))
(assert (= "I" (CharAt var29 564)))
(assert (= "8" (CharAt var49 177)))
(assert (= "?" (CharAt var41 32)))
(assert (= ")" (CharAt var35 116)))
(assert (= "\"" (CharAt var3 948)))
(assert (= "?" (CharAt var13 289)))
(assert (= "{" (CharAt var39 840)))
(assert (= ":" (CharAt var27 650)))
(assert (= "^" (CharAt var15 25)))
(assert (= "[" (CharAt var36 512)))
(assert (= "+" (CharAt var38 368)))
(assert (= "F" (CharAt var55 363)))
(assert (= "1" (CharAt var32 176)))
(assert (= "w" (CharAt var21 294)))
(assert (= "+" (CharAt var41 58)))
(assert (= "\"" (CharAt var29 128)))
(assert (= "@" (CharAt var56 214)))
(assert (= "J" (CharAt var42 657)))
(assert (= "r" (CharAt var26 448)))
(assert (= "<" (CharAt var32 471)))
(assert (= "8" (CharAt var46 877)))
(assert (= "|" (CharAt var22 573)))
(assert (= "g" (CharAt var40 399)))
(assert (= "j" (CharAt var41 416)))
(assert (= "<" (CharAt var5 307)))
(assert (= "L" (CharAt var50 41)))
(assert (= "f" (CharAt var28 171)))
(assert (= "v" (CharAt var19 629)))
(assert (= "N" (CharAt var5 802)))
(assert (= "." (CharAt var42 901)))
(assert (= "7" (CharAt var40 165)))
(assert (= "3" (CharAt var49 810)))
(assert (= "S" (CharAt var49 762)))
(assert (= "?" (CharAt var23 584)))
(assert (= "]" (CharAt var9 316)))
(assert (= "5" (CharAt var56 594)))
(assert (= "K" (CharAt var7 331)))
(assert (= "^" (CharAt var55 695)))
(assert (= "]" (CharAt var17 44)))
(assert (= "#" (CharAt var13 74)))
(assert (= ")" (CharAt var31 895)))
(assert (= "`" (CharAt var10 647)))
(assert (= "T" (CharAt var36 463)))
(assert (= "K" (CharAt var4 623)))
(assert (= "y" (CharAt var37 482)))
(assert (= "Q" (CharAt var19 960)))
(assert (= "0" (CharAt var54 521)))
(assert (= "w" (CharAt var10 305)))
(assert (= "N" (CharAt var40 154)))
(assert (= "_" (CharAt var50 366)))
(assert (= "B" (CharAt var47 446)))
(assert (= "7" (CharAt var28 68)))
(assert (= "B" (CharAt var52 482)))
(assert (= "f" (CharAt var49 411)))
(assert (= "O" (CharAt var14 565)))
(assert (= "," (CharAt var49 127)))
(assert (= "c" (CharAt var8 288)))
(assert (= "%" (CharAt var54 913)))
(assert (= "k" (CharAt var20 7)))
(assert (= "-" (CharAt var46 755)))
(assert (= "y" (CharAt var46 700)))
(assert (= "l" (CharAt var43 456)))
(assert (= "P" (CharAt var9 626)))
(assert (= "H" (CharAt var28 167)))
(assert (= "o" (CharAt var16 377)))
(assert (= "a" (CharAt var44 23)))
(assert (= "1" (CharAt var2 174)))
(assert (= "f" (CharAt var42 841)))
(assert (= "#" (CharAt var27 905)))
(assert (= "6" (CharAt var52 529)))
(assert (= "C" (CharAt var45 528)))
(assert (= "3" (CharAt var18 20)))
(assert (= "k" (CharAt var35 644)))
(assert (= "l" (CharAt var4 460)))
(assert (= ")" (CharAt var17 293)))
(assert (= "." (CharAt var48 31)))
(assert (= "e" (CharAt var25 315)))
(assert (= "=" (CharAt var45 412)))
(assert (= "k" (CharAt var7 414)))
(assert (= "j" (CharAt var1 349)))
(assert (= "/" (CharAt var43 413)))
(assert (= "." (CharAt var17 908)))
(assert (= "P" (CharAt var50 718)))
(assert (= "&" (CharAt var22 458)))
(assert (= "m" (CharAt var30 995)))
(assert (= "K" (CharAt var59 676)))
(assert (= "0" (CharAt var60 185)))
(assert (= "3" (CharAt var27 382)))
(assert (= "!" (CharAt var35 46)))
(assert (= ";" (CharAt var10 718)))
(assert (= "O" (CharAt var17 91)))
(assert (= "\"" (CharAt var17 374)))
(assert (= "9" (CharAt var16 698)))
(assert (= "Q" (CharAt var20 824)))
(assert (= "3" (CharAt var10 869)))
(assert (= "m" (CharAt var24 894)))
(assert (= "a" (CharAt var32 873)))
(assert (= "W" (CharAt var52 248)))
(assert (= "z" (CharAt var22 628)))
(assert (= "D" (CharAt var28 621)))
(assert (= "A" (CharAt var12 483)))
(assert (= "X" (CharAt var25 789)))
(assert (= "Z" (CharAt var7 285)))
(assert (= "?" (CharAt var7 763)))
(assert (= "!" (CharAt var51 779)))
(assert (= "*" (CharAt var54 869)))
(assert (= "f" (CharAt var2 264)))
(assert (= ")" (CharAt var50 550)))
(assert (= "_" (CharAt var7 754)))
(assert (= "t" (CharAt var33 280)))
(assert (= "?" (CharAt var42 943)))
(assert (= "!" (CharAt var44 346)))
(assert (= "I" (CharAt var36 671)))
(assert (= "R" (CharAt var47 27)))
(assert (= "." (CharAt var34 312)))
(assert (= "(" (CharAt var26 517)))
(assert (= "K" (CharAt var27 5)))
(assert (= "\"" (CharAt var27 873)))
(assert (= "C" (CharAt var58 572)))
(assert (= "m" (CharAt var53 132)))
(assert (= "F" (CharAt var42 22)))
(assert (= "o" (CharAt var32 863)))
(assert (= "'" (CharAt var40 374)))
(assert (= "^" (CharAt var3 272)))
(assert (= "r" (CharAt var51 808)))
(assert (= "=" (CharAt var38 211)))
(assert (= "h" (CharAt var30 225)))
(assert (= "#" (CharAt var10 142)))
(assert (= "]" (CharAt var8 449)))
(assert (= "~" (CharAt var38 45)))
(assert (= "C" (CharAt var45 270)))
(assert (= "," (CharAt var51 477)))
(assert (= "(" (CharAt var4 702)))
(assert (= "f" (CharAt var21 944)))
(assert (= "O" (CharAt var25 197)))
(assert (= "Y" (CharAt var39 300)))
(assert (= "j" (CharAt var28 9)))
(assert (= "b" (CharAt var47 944)))
(assert (= "g" (CharAt var16 621)))
(assert (= "|" (CharAt var14 463)))
(assert (= "c" (CharAt var27 332)))
(assert (= "T" (CharAt var25 361)))
(assert (= ")" (CharAt var50 405)))
(assert (= "9" (CharAt var52 51)))
(assert (= "a" (CharAt var54 633)))
(assert (= "5" (CharAt var21 89)))
(assert (= "Y" (CharAt var3 885)))
(assert (= "b" (CharAt var14 637)))
(assert (= "r" (CharAt var44 82)))
(assert (= "D" (CharAt var60 431)))
(assert (= "n" (CharAt var32 686)))
(assert (= "?" (CharAt var27 936)))
(assert (= "%" (CharAt var24 321)))
(assert (= "k" (CharAt var33 858)))
(assert (= "." (CharAt var11 346)))
(assert (= "O" (CharAt var31 629)))
(assert (= "Z" (CharAt var23 339)))
(assert (= "H" (CharAt var34 915)))
(assert (= "u" (CharAt var14 985)))
(check-sat)